sat
((rprim_1_1 18))
((rprim_1_2 20))
((rprim_1_3 18))
((rprim_1_4 20))
((rprim_1_5 1))
((rprim_1_6 18))
((rprim_1_7 14))
((rprim_1_8 1))
((rprim_1_9 18))
((rprim_1_10 1))
((rprim_1_11 1))
((rprim_1_12 20))
((rprim_1_13 1))
((rprim_1_14 16))
((rprim_1_15 20))
((rprim_1_16 1))
((rprim_1_17 19))
((rprim_1_18 19))
((rprim_1_19 21))
((rprim_1_20 21))
((rprim_1_21 1))
((rprim_1_22 14))
((rprim_1_23 18))
((rprim_1_24 1))
((rprim_1_25 20))
((rprim_1_26 10))
((rprim_1_27 18))
((rprim_1_28 1))
((rprim_1_29 14))
((rprim_1_30 1))
((rprim_1_31 1))
((rprim_1_32 16))
((rprim_1_33 20))
((rprim_1_34 16))
((rprim_1_35 1))
((rprim_1_36 1))
((rprim_1_37 12))
((rprim_1_38 1))
((rprim_1_39 1))
((rcost_1_1 4.0))
((rcost_1_2 4.0))
((rcost_1_3 4.0))
((rcost_1_4 4.0))
((rcost_1_5 0.0))
((rcost_1_6 4.0))
((rcost_1_7 4.0))
((rcost_1_8 0.0))
((rcost_1_9 4.0))
((rcost_1_10 0.0))
((rcost_1_11 0.0))
((rcost_1_12 4.0))
((rcost_1_13 0.0))
((rcost_1_14 4.0))
((rcost_1_15 4.0))
((rcost_1_16 0.0))
((rcost_1_17 4.0))
((rcost_1_18 4.0))
((rcost_1_19 4.0))
((rcost_1_20 4.0))
((rcost_1_21 0.0))
((rcost_1_22 4.0))
((rcost_1_23 4.0))
((rcost_1_24 0.0))
((rcost_1_25 4.0))
((rcost_1_26 3.0))
((rcost_1_27 4.0))
((rcost_1_28 0.0))
((rcost_1_29 4.0))
((rcost_1_30 0.0))
((rcost_1_31 0.0))
((rcost_1_32 4.0))
((rcost_1_33 4.0))
((rcost_1_34 4.0))
((rcost_1_35 0.0))
((rcost_1_36 0.0))
((rcost_1_37 3.0))
((rcost_1_38 0.0))
((rcost_1_39 0.0))
((rx_1_1 8))
((ry_1_1 4))
((rx_1_2 11))
((ry_1_2 4))
((rx_1_3 8))
((ry_1_3 4))
((rx_1_4 11))
((ry_1_4 4))
((rx_1_5 8))
((ry_1_5 4))
((rx_1_6 8))
((ry_1_6 4))
((rx_1_7 11))
((ry_1_7 4))
((rx_1_8 13))
((ry_1_8 6))
((rx_1_9 13))
((ry_1_9 6))
((rx_1_10 16))
((ry_1_10 6))
((rx_1_11 16))
((ry_1_11 6))
((rx_1_12 16))
((ry_1_12 6))
((rx_1_13 13))
((ry_1_13 6))
((rx_1_14 13))
((ry_1_14 6))
((rx_1_15 11))
((ry_1_15 4))
((rx_1_16 8))
((ry_1_16 4))
((rx_1_17 8))
((ry_1_17 4))
((rx_1_18 8))
((ry_1_18 7))
((rx_1_19 8))
((ry_1_19 10))
((rx_1_20 8))
((ry_1_20 7))
((rx_1_21 8))
((ry_1_21 4))
((rx_1_22 8))
((ry_1_22 4))
((rx_1_23 10))
((ry_1_23 6))
((rx_1_24 13))
((ry_1_24 6))
((rx_1_25 13))
((ry_1_25 6))
((rx_1_26 10))
((ry_1_26 6))
((rx_1_27 12))
((ry_1_27 6))
((rx_1_28 15))
((ry_1_28 6))
((rx_1_29 15))
((ry_1_29 6))
((rx_1_30 17))
((ry_1_30 8))
((rx_1_31 17))
((ry_1_31 8))
((rx_1_32 17))
((ry_1_32 8))
((rx_1_33 15))
((ry_1_33 6))
((rx_1_34 12))
((ry_1_34 6))
((rx_1_35 10))
((ry_1_35 4))
((rx_1_36 10))
((ry_1_36 4))
((rx_1_37 10))
((ry_1_37 4))
((rx_1_38 8))
((ry_1_38 4))
((rx_1_39 8))
((ry_1_39 4))
((rx_1_40 8))
((ry_1_40 4))
((rechassigned_1_1 0))
((rechassigned_1_2 0))
((rechassigned_1_3 0))
((rechassigned_1_4 0))
((rechassigned_1_5 1))
((rechassigned_1_6 0))
((rechassigned_1_7 0))
((rechassigned_1_8 0))
((rechassigned_1_9 0))
((rechassigned_1_10 0))
((rechassigned_1_11 0))
((rechassigned_1_12 0))
((rechassigned_1_13 0))
((rechassigned_1_14 0))
((rechassigned_1_15 0))
((rechassigned_1_16 1))
((rechassigned_1_17 0))
((rechassigned_1_18 0))
((rechassigned_1_19 0))
((rechassigned_1_20 0))
((rechassigned_1_21 1))
((rechassigned_1_22 0))
((rechassigned_1_23 0))
((rechassigned_1_24 0))
((rechassigned_1_25 0))
((rechassigned_1_26 0))
((rechassigned_1_27 0))
((rechassigned_1_28 0))
((rechassigned_1_29 0))
((rechassigned_1_30 2))
((rechassigned_1_31 2))
((rechassigned_1_32 2))
((rechassigned_1_33 2))
((rechassigned_1_34 2))
((rechassigned_1_35 2))
((rechassigned_1_36 2))
((rechassigned_1_37 2))
((rechassigned_1_38 1))
((rechassigned_1_39 1))
((rechassigned_1_40 0))
((rechassigned_2_1 0))
((rechassigned_2_2 0))
((rechassigned_2_3 0))
((rechassigned_2_4 0))
((rechassigned_2_5 0))
((rechassigned_2_6 0))
((rechassigned_2_7 0))
((rechassigned_2_8 0))
((rechassigned_2_9 0))
((rechassigned_2_10 0))
((rechassigned_2_11 1))
((rechassigned_2_12 0))
((rechassigned_2_13 1))
((rechassigned_2_14 0))
((rechassigned_2_15 0))
((rechassigned_2_16 0))
((rechassigned_2_17 0))
((rechassigned_2_18 0))
((rechassigned_2_19 0))
((rechassigned_2_20 0))
((rechassigned_2_21 0))
((rechassigned_2_22 0))
((rechassigned_2_23 0))
((rechassigned_2_24 0))
((rechassigned_2_25 0))
((rechassigned_2_26 0))
((rechassigned_2_27 0))
((rechassigned_2_28 0))
((rechassigned_2_29 0))
((rechassigned_2_30 2))
((rechassigned_2_31 2))
((rechassigned_2_32 2))
((rechassigned_2_33 2))
((rechassigned_2_34 2))
((rechassigned_2_35 1))
((rechassigned_2_36 1))
((rechassigned_2_37 2))
((rechassigned_2_38 2))
((rechassigned_2_39 2))
((rechassigned_2_40 0))
((rechassigned_3_1 0))
((rechassigned_3_2 0))
((rechassigned_3_3 0))
((rechassigned_3_4 0))
((rechassigned_3_5 0))
((rechassigned_3_6 0))
((rechassigned_3_7 0))
((rechassigned_3_8 1))
((rechassigned_3_9 0))
((rechassigned_3_10 0))
((rechassigned_3_11 0))
((rechassigned_3_12 0))
((rechassigned_3_13 1))
((rechassigned_3_14 0))
((rechassigned_3_15 0))
((rechassigned_3_16 0))
((rechassigned_3_17 0))
((rechassigned_3_18 0))
((rechassigned_3_19 0))
((rechassigned_3_20 0))
((rechassigned_3_21 0))
((rechassigned_3_22 0))
((rechassigned_3_23 0))
((rechassigned_3_24 1))
((rechassigned_3_25 0))
((rechassigned_3_26 0))
((rechassigned_3_27 0))
((rechassigned_3_28 0))
((rechassigned_3_29 0))
((rechassigned_3_30 1))
((rechassigned_3_31 1))
((rechassigned_3_32 2))
((rechassigned_3_33 2))
((rechassigned_3_34 2))
((rechassigned_3_35 2))
((rechassigned_3_36 2))
((rechassigned_3_37 2))
((rechassigned_3_38 2))
((rechassigned_3_39 2))
((rechassigned_3_40 0))
((total_rcost 0))
((lastrech_1_30 false))
((lastrech_1_31 false))
((lastrech_1_32 false))
((lastrech_1_33 false))
((lastrech_1_34 false))
((lastrech_1_35 false))
((lastrech_1_36 false))
((lastrech_1_37 false))
((lastrech_1_38 true))
((lastrech_2_30 false))
((lastrech_2_31 false))
((lastrech_2_32 false))
((lastrech_2_33 false))
((lastrech_2_34 false))
((lastrech_2_35 true))
((lastrech_2_36 false))
((lastrech_2_37 false))
((lastrech_2_38 false))
((lastrech_3_30 true))
((lastrech_3_31 false))
((lastrech_3_32 false))
((lastrech_3_33 false))
((lastrech_3_34 false))
((lastrech_3_35 false))
((lastrech_3_36 false))
((lastrech_3_37 false))
((lastrech_3_38 false))
